local_stuff/sygus_stuff/sygus_inv_oai/repo/z3/65.out
STDOUT:
sat
(
  (define-fun inv ((x!0 Int) (x!1 Int)) Bool
    (or (not (>= x!0 2)) (>= x!1 0)))
)


STDERR:
